&control
    prefix='silicon',
    calculation = 'scf'
    pseudo_dir='../pseudo/',
    outdir='./',
    verbosity='high'
 /
&system
    ibrav=  2, celldm(1) =10.200, nat=  2, ntyp= 1,
    ecutwfc = 25.0, ecutrho = 100.0, nbnd = 30
    nosym=.true.,
    nosym_evc=.true.,
    noinv=.true.,
    no_t_rev=.true.,
    occupations='fixed',
/
&electrons
    conv_thr=1D-8,
    startingwfc="random"
/
ATOMIC_SPECIES
  Si  28.086  Si_ONCV_PBE-1.2.upf
ATOMIC_POSITIONS crystal
Si 0.875 0.875 0.875 
Si 0.125 0.125 0.125

K_POINTS crystal
    64
  0.000000000  0.000000000  0.000000000  1.0
  0.000000000  0.000000000  0.250000000  1.0
  0.000000000  0.000000000  0.500000000  1.0
  0.000000000  0.000000000  0.750000000  1.0
  0.000000000  0.250000000  0.000000000  1.0
  0.000000000  0.250000000  0.250000000  1.0
  0.000000000  0.250000000  0.500000000  1.0
  0.000000000  0.250000000  0.750000000  1.0
  0.000000000  0.500000000  0.000000000  1.0
  0.000000000  0.500000000  0.250000000  1.0
  0.000000000  0.500000000  0.500000000  1.0
  0.000000000  0.500000000  0.750000000  1.0
  0.000000000  0.750000000  0.000000000  1.0
  0.000000000  0.750000000  0.250000000  1.0
  0.000000000  0.750000000  0.500000000  1.0
  0.000000000  0.750000000  0.750000000  1.0
  0.250000000  0.000000000  0.000000000  1.0
  0.250000000  0.000000000  0.250000000  1.0
  0.250000000  0.000000000  0.500000000  1.0
  0.250000000  0.000000000  0.750000000  1.0
  0.250000000  0.250000000  0.000000000  1.0
  0.250000000  0.250000000  0.250000000  1.0
  0.250000000  0.250000000  0.500000000  1.0
  0.250000000  0.250000000  0.750000000  1.0
  0.250000000  0.500000000  0.000000000  1.0
  0.250000000  0.500000000  0.250000000  1.0
  0.250000000  0.500000000  0.500000000  1.0
  0.250000000  0.500000000  0.750000000  1.0
  0.250000000  0.750000000  0.000000000  1.0
  0.250000000  0.750000000  0.250000000  1.0
  0.250000000  0.750000000  0.500000000  1.0
  0.250000000  0.750000000  0.750000000  1.0
  0.500000000  0.000000000  0.000000000  1.0
  0.500000000  0.000000000  0.250000000  1.0
  0.500000000  0.000000000  0.500000000  1.0
  0.500000000  0.000000000  0.750000000  1.0
  0.500000000  0.250000000  0.000000000  1.0
  0.500000000  0.250000000  0.250000000  1.0
  0.500000000  0.250000000  0.500000000  1.0
  0.500000000  0.250000000  0.750000000  1.0
  0.500000000  0.500000000  0.000000000  1.0
  0.500000000  0.500000000  0.250000000  1.0
  0.500000000  0.500000000  0.500000000  1.0
  0.500000000  0.500000000  0.750000000  1.0
  0.500000000  0.750000000  0.000000000  1.0
  0.500000000  0.750000000  0.250000000  1.0
  0.500000000  0.750000000  0.500000000  1.0
  0.500000000  0.750000000  0.750000000  1.0
  0.750000000  0.000000000  0.000000000  1.0
  0.750000000  0.000000000  0.250000000  1.0
  0.750000000  0.000000000  0.500000000  1.0
  0.750000000  0.000000000  0.750000000  1.0
  0.750000000  0.250000000  0.000000000  1.0
  0.750000000  0.250000000  0.250000000  1.0
  0.750000000  0.250000000  0.500000000  1.0
  0.750000000  0.250000000  0.750000000  1.0
  0.750000000  0.500000000  0.000000000  1.0
  0.750000000  0.500000000  0.250000000  1.0
  0.750000000  0.500000000  0.500000000  1.0
  0.750000000  0.500000000  0.750000000  1.0
  0.750000000  0.750000000  0.000000000  1.0
  0.750000000  0.750000000  0.250000000  1.0
  0.750000000  0.750000000  0.500000000  1.0
  0.750000000  0.750000000  0.750000000  1.0

