&control
    prefix='silicon',
    calculation = 'scf'
    pseudo_dir='../pseudo/',
    outdir='./',
    verbosity='high'
 /
&system
    ibrav=  2, celldm(1) =10.200, nat=  2, ntyp= 1,
    ecutwfc = 4, nbnd = 9
    nosym=.true.,
    nosym_evc=.true.,
    noinv=.true.,
    no_t_rev=.true.,
    occupations='fixed',
/
&electrons
    conv_thr=1D-8,
    startingwfc="random"
/
ATOMIC_SPECIES
  Si  28.086  Si_ONCV_PBE-1.2.upf
ATOMIC_POSITIONS crystal
Si 0.875 0.875 0.875 
Si 0.125 0.125 0.125

K_POINTS crystal
    1
  0.001000000  0.001000000  0.001000000  1.0

